&CONTROL
 calculation = 'bands'
      outdir = './'
  pseudo_dir = './'
      prefix = 'pb'
  wf_collect = .true.
/
&SYSTEM
        nbnd = 120
       ibrav = 0
         nat = 4
        ntyp = 1
     ecutwfc = 40.000000
     ecutrho = 320.000000
 occupations = 'tetrahedra_opt'
    noncolin = .true.
    lspinorb = .true.
/
&ELECTRONS
/
CELL_PARAMETERS angstrom
4.9402  0.0  0.0
0.0  4.9402  0.0
0.0  0.0  4.9402
ATOMIC_SPECIES
 Pb 207.200000 Pb.rel-pbe-dn-kjpaw_psl.0.2.2.UPF
ATOMIC_POSITIONS crystal
 Pb 0.000000 0.000000 0.000000
 Pb 0.000000 0.500000 0.500000
 Pb 0.500000 0.000000 0.500000
 Pb 0.500000 0.500000 0.000000
K_POINTS crystal
27
  0.00000000  0.00000000  0.00000000  3.703704e-02 
  0.00000000  0.00000000  0.33333333  3.703704e-02 
  0.00000000  0.00000000  0.66666667  3.703704e-02 
  0.00000000  0.33333333  0.00000000  3.703704e-02 
  0.00000000  0.33333333  0.33333333  3.703704e-02 
  0.00000000  0.33333333  0.66666667  3.703704e-02 
  0.00000000  0.66666667  0.00000000  3.703704e-02 
  0.00000000  0.66666667  0.33333333  3.703704e-02 
  0.00000000  0.66666667  0.66666667  3.703704e-02 
  0.33333333  0.00000000  0.00000000  3.703704e-02 
  0.33333333  0.00000000  0.33333333  3.703704e-02 
  0.33333333  0.00000000  0.66666667  3.703704e-02 
  0.33333333  0.33333333  0.00000000  3.703704e-02 
  0.33333333  0.33333333  0.33333333  3.703704e-02 
  0.33333333  0.33333333  0.66666667  3.703704e-02 
  0.33333333  0.66666667  0.00000000  3.703704e-02 
  0.33333333  0.66666667  0.33333333  3.703704e-02 
  0.33333333  0.66666667  0.66666667  3.703704e-02 
  0.66666667  0.00000000  0.00000000  3.703704e-02 
  0.66666667  0.00000000  0.33333333  3.703704e-02 
  0.66666667  0.00000000  0.66666667  3.703704e-02 
  0.66666667  0.33333333  0.00000000  3.703704e-02 
  0.66666667  0.33333333  0.33333333  3.703704e-02 
  0.66666667  0.33333333  0.66666667  3.703704e-02 
  0.66666667  0.66666667  0.00000000  3.703704e-02 
  0.66666667  0.66666667  0.33333333  3.703704e-02 
  0.66666667  0.66666667  0.66666667  3.703704e-02 
