num_bands         =  120 
num_wann          =   24
spinors = .true.

dis_win_max =  25.0
dis_win_min =  5.84
dis_froz_max = 15.23
dis_froz_min = 5.84

begin projections
Pb1:p(u)
Pb1:p(d)
Pb2:p(u)
Pb2:p(d)
Pb3:p(u)
Pb3:p(d)
Pb4:p(u)
Pb4:p(d)
end projections

write_hr = .true.
bands_plot = .true.

wannier_plot_supercell = 3

begin kpoint_path
G  0.0  0.0  0.0     X  0.5  0.0  0.0     
X  0.5  0.0  0.0     M  0.5  0.5  0.0     
M  0.5  0.5  0.0     G  0.0  0.0  0.0     
G  0.0  0.0  0.0     R  0.5  0.5  0.5     
end kpoint_path

begin unit_cell_cart
Ang
4.9402  0.0  0.0
0.0  4.9402  0.0
0.0  0.0  4.9402
end unit_cell_cart

begin atoms_frac
 Pb1 0.000000 0.000000 0.000000
 Pb2 0.000000 0.500000 0.500000
 Pb3 0.500000 0.000000 0.500000
 Pb4 0.500000 0.500000 0.000000
end atoms_frac

mp_grid           = 3 3 3

begin kpoints
  0.00000000  0.00000000  0.00000000 
  0.00000000  0.00000000  0.33333333 
  0.00000000  0.00000000  0.66666667 
  0.00000000  0.33333333  0.00000000 
  0.00000000  0.33333333  0.33333333 
  0.00000000  0.33333333  0.66666667 
  0.00000000  0.66666667  0.00000000 
  0.00000000  0.66666667  0.33333333 
  0.00000000  0.66666667  0.66666667 
  0.33333333  0.00000000  0.00000000 
  0.33333333  0.00000000  0.33333333 
  0.33333333  0.00000000  0.66666667 
  0.33333333  0.33333333  0.00000000 
  0.33333333  0.33333333  0.33333333 
  0.33333333  0.33333333  0.66666667 
  0.33333333  0.66666667  0.00000000 
  0.33333333  0.66666667  0.33333333 
  0.33333333  0.66666667  0.66666667 
  0.66666667  0.00000000  0.00000000 
  0.66666667  0.00000000  0.33333333 
  0.66666667  0.00000000  0.66666667 
  0.66666667  0.33333333  0.00000000 
  0.66666667  0.33333333  0.33333333 
  0.66666667  0.33333333  0.66666667 
  0.66666667  0.66666667  0.00000000 
  0.66666667  0.66666667  0.33333333 
  0.66666667  0.66666667  0.66666667 
end kpoints
