&BANDS
prefix = "nis",
outdir = "./",
!filband = "band.dat"
!lsym = .true.
/
