&CONTROL
 calculation = 'scf',
  pseudo_dir = './',
      prefix = 'nis' ,
      outdir = './'
/
&SYSTEM
       ibrav = 4,
   celldm(1) = 6.5158
   celldm(3) = 1.5542
         nat = 4,
        ntyp = 2,
     ecutwfc = 45.0 ,
     ecutrho = 360.0 ,
occupations = 'tetrahedra_opt',
/
&ELECTRONS
/
ATOMIC_SPECIES
 Ni    58.6934   Ni.pbe-n-kjpaw_psl.0.1.upf
  S    32.066     S.pbe-n-kjpaw_psl.0.1.upf
ATOMIC_POSITIONS crystal
 Ni    0.000000000    0.000000000    0.000000000
 Ni    0.000000000    0.000000000    0.500000000
  S    0.333333333    0.666666667    0.250000000
  S    0.666666667    0.333333333    0.750000000
K_POINTS automatic 
8 8 6 0 0 0
