num_bands         =   30
num_wann          =   16

dis_win_max =  13.0
dis_win_min =  2.0
!dis_froz_max = 13.0
!dis_froz_min = 2.0

begin projections
Ni:d
S:p
end projections
site_symmetry = .true.

write_hr = .true.
bands_plot = .true.
wannier_plot = .true.

wannier_plot_supercell = 1

!exclude_bands=

begin kpoint_path
G  0.0000000000  0.0000000000  0.00  M  0.5000000000  0.0000000000  0.00
M  0.5000000000  0.0000000000  0.00  K  0.3333333333  0.3333333333  0.00
K  0.3333333333  0.3333333333  0.00  G  0.0000000000  0.0000000000  0.00
G  0.0000000000  0.0000000000  0.00  A  0.0000000000  0.0000000000  0.50
A  0.0000000000  0.0000000000  0.50  L  0.5000000000  0.0000000000  0.50
L  0.5000000000  0.0000000000  0.50  H  0.3333333333  0.3333333333  0.50
H  0.3333333333  0.3333333333  0.50  A  0.0000000000  0.0000000000  0.50
end kpoint_path

begin unit_cell_cart
bohr
 6.515800000000000E+000  0.000000000000000E+000  0.000000000000000E+000
-3.257900000000000E+000  5.642848325979045E+000  0.000000000000000E+000
 0.000000000000000E+000  0.000000000000000E+000  1.012685636000000E+001
end unit_cell_cart

begin atoms_frac
 Ni    0.000000000    0.000000000    0.000000000
 Ni    0.000000000    0.000000000    0.500000000
  S    0.333333333    0.666666667    0.250000000
  S    0.666666667    0.333333333    0.750000000
end atoms_frac

mp_grid           = 4 4 4

begin kpoints
  0.00000000  0.00000000  0.00000000
  0.00000000  0.00000000  0.25000000
  0.00000000  0.00000000  0.50000000
  0.00000000  0.00000000  0.75000000
  0.00000000  0.25000000  0.00000000
  0.00000000  0.25000000  0.25000000
  0.00000000  0.25000000  0.50000000
  0.00000000  0.25000000  0.75000000
  0.00000000  0.50000000  0.00000000
  0.00000000  0.50000000  0.25000000
  0.00000000  0.50000000  0.50000000
  0.00000000  0.50000000  0.75000000
  0.00000000  0.75000000  0.00000000
  0.00000000  0.75000000  0.25000000
  0.00000000  0.75000000  0.50000000
  0.00000000  0.75000000  0.75000000
  0.25000000  0.00000000  0.00000000
  0.25000000  0.00000000  0.25000000
  0.25000000  0.00000000  0.50000000
  0.25000000  0.00000000  0.75000000
  0.25000000  0.25000000  0.00000000
  0.25000000  0.25000000  0.25000000
  0.25000000  0.25000000  0.50000000
  0.25000000  0.25000000  0.75000000
  0.25000000  0.50000000  0.00000000
  0.25000000  0.50000000  0.25000000
  0.25000000  0.50000000  0.50000000
  0.25000000  0.50000000  0.75000000
  0.25000000  0.75000000  0.00000000
  0.25000000  0.75000000  0.25000000
  0.25000000  0.75000000  0.50000000
  0.25000000  0.75000000  0.75000000
  0.50000000  0.00000000  0.00000000
  0.50000000  0.00000000  0.25000000
  0.50000000  0.00000000  0.50000000
  0.50000000  0.00000000  0.75000000
  0.50000000  0.25000000  0.00000000
  0.50000000  0.25000000  0.25000000
  0.50000000  0.25000000  0.50000000
  0.50000000  0.25000000  0.75000000
  0.50000000  0.50000000  0.00000000
  0.50000000  0.50000000  0.25000000
  0.50000000  0.50000000  0.50000000
  0.50000000  0.50000000  0.75000000
  0.50000000  0.75000000  0.00000000
  0.50000000  0.75000000  0.25000000
  0.50000000  0.75000000  0.50000000
  0.50000000  0.75000000  0.75000000
  0.75000000  0.00000000  0.00000000
  0.75000000  0.00000000  0.25000000
  0.75000000  0.00000000  0.50000000
  0.75000000  0.00000000  0.75000000
  0.75000000  0.25000000  0.00000000
  0.75000000  0.25000000  0.25000000
  0.75000000  0.25000000  0.50000000
  0.75000000  0.25000000  0.75000000
  0.75000000  0.50000000  0.00000000
  0.75000000  0.50000000  0.25000000
  0.75000000  0.50000000  0.50000000
  0.75000000  0.50000000  0.75000000
  0.75000000  0.75000000  0.00000000
  0.75000000  0.75000000  0.25000000
  0.75000000  0.75000000  0.50000000
  0.75000000  0.75000000  0.75000000
end kpoints
