&BANDS
prefix = "srvo3",
outdir = "./",
!filband = "band.dat"
!lsym = .true.
/
