&CONTROL
 calculation = 'bands',
  pseudo_dir = './',
      prefix = 'nis' ,
      outdir = './'
/
&SYSTEM
        nbnd = 30
       ibrav = 4,
   celldm(1) = 6.5158
   celldm(3) = 1.5542
         nat = 4,
        ntyp = 2,
     ecutwfc = 45.0 ,
     ecutrho = 360.0 ,
 occupations = 'tetrahedra_opt',
/
&ELECTRONS
/
ATOMIC_SPECIES
 Ni    58.6934   Ni.pbe-n-kjpaw_psl.0.1.upf
  S    32.066     S.pbe-n-kjpaw_psl.0.1.upf
ATOMIC_POSITIONS crystal
 Ni    0.000000000    0.000000000    0.000000000
 Ni    0.000000000    0.000000000    0.500000000
  S    0.333333333    0.666666667    0.250000000
  S    0.666666667    0.333333333    0.750000000
K_POINTS crystal
          98
        0.0000000000    0.0000000000    0.0000000000    1.0
        0.0312500000    0.0000000000    0.0000000000    1.0
        0.0625000000    0.0000000000    0.0000000000    1.0
        0.0937500000    0.0000000000    0.0000000000    1.0
        0.1250000000    0.0000000000    0.0000000000    1.0
        0.1562500000    0.0000000000    0.0000000000    1.0
        0.1875000000    0.0000000000    0.0000000000    1.0
        0.2187500000    0.0000000000    0.0000000000    1.0
        0.2500000000    0.0000000000    0.0000000000    1.0
        0.2812500000    0.0000000000    0.0000000000    1.0
        0.3125000000    0.0000000000    0.0000000000    1.0
        0.3437500000    0.0000000000    0.0000000000    1.0
        0.3750000000    0.0000000000    0.0000000000    1.0
        0.4062500000    0.0000000000    0.0000000000    1.0
        0.4375000000    0.0000000000    0.0000000000    1.0
        0.4687500000    0.0000000000    0.0000000000    1.0
        0.5000000000    0.0000000000    0.0000000000    1.0
        0.4814811111    0.0370366667    0.0000000000    1.0
        0.4629622222    0.0740733333    0.0000000000    1.0
        0.4444433333    0.1111100000    0.0000000000    1.0
        0.4259244444    0.1481466667    0.0000000000    1.0
        0.4074055556    0.1851833333    0.0000000000    1.0
        0.3888866667    0.2222200000    0.0000000000    1.0
        0.3703677778    0.2592566667    0.0000000000    1.0
        0.3518488889    0.2962933333    0.0000000000    1.0
        0.3333300000    0.3333300000    0.0000000000    1.0
        0.3157863158    0.3157863158    0.0000000000    1.0
        0.2982426316    0.2982426316    0.0000000000    1.0
        0.2806989474    0.2806989474    0.0000000000    1.0
        0.2631552632    0.2631552632    0.0000000000    1.0
        0.2456115789    0.2456115789    0.0000000000    1.0
        0.2280678947    0.2280678947    0.0000000000    1.0
        0.2105242105    0.2105242105    0.0000000000    1.0
        0.1929805263    0.1929805263    0.0000000000    1.0
        0.1754368421    0.1754368421    0.0000000000    1.0
        0.1578931579    0.1578931579    0.0000000000    1.0
        0.1403494737    0.1403494737    0.0000000000    1.0
        0.1228057895    0.1228057895    0.0000000000    1.0
        0.1052621053    0.1052621053    0.0000000000    1.0
        0.0877184211    0.0877184211    0.0000000000    1.0
        0.0701747368    0.0701747368    0.0000000000    1.0
        0.0526310526    0.0526310526    0.0000000000    1.0
        0.0350873684    0.0350873684    0.0000000000    1.0
        0.0175436842    0.0175436842    0.0000000000    1.0
        0.0000000000    0.0000000000    0.0000000000    1.0
        0.0000000000    0.0000000000    0.0555555556    1.0
        0.0000000000    0.0000000000    0.1111111111    1.0
        0.0000000000    0.0000000000    0.1666666667    1.0
        0.0000000000    0.0000000000    0.2222222222    1.0
        0.0000000000    0.0000000000    0.2777777778    1.0
        0.0000000000    0.0000000000    0.3333333333    1.0
        0.0000000000    0.0000000000    0.3888888889    1.0
        0.0000000000    0.0000000000    0.4444444444    1.0
        0.0000000000    0.0000000000    0.5000000000    1.0
        0.0312500000    0.0000000000    0.5000000000    1.0
        0.0625000000    0.0000000000    0.5000000000    1.0
        0.0937500000    0.0000000000    0.5000000000    1.0
        0.1250000000    0.0000000000    0.5000000000    1.0
        0.1562500000    0.0000000000    0.5000000000    1.0
        0.1875000000    0.0000000000    0.5000000000    1.0
        0.2187500000    0.0000000000    0.5000000000    1.0
        0.2500000000    0.0000000000    0.5000000000    1.0
        0.2812500000    0.0000000000    0.5000000000    1.0
        0.3125000000    0.0000000000    0.5000000000    1.0
        0.3437500000    0.0000000000    0.5000000000    1.0
        0.3750000000    0.0000000000    0.5000000000    1.0
        0.4062500000    0.0000000000    0.5000000000    1.0
        0.4375000000    0.0000000000    0.5000000000    1.0
        0.4687500000    0.0000000000    0.5000000000    1.0
        0.5000000000    0.0000000000    0.5000000000    1.0
        0.4814811111    0.0370366667    0.5000000000    1.0
        0.4629622222    0.0740733333    0.5000000000    1.0
        0.4444433333    0.1111100000    0.5000000000    1.0
        0.4259244444    0.1481466667    0.5000000000    1.0
        0.4074055556    0.1851833333    0.5000000000    1.0
        0.3888866667    0.2222200000    0.5000000000    1.0
        0.3703677778    0.2592566667    0.5000000000    1.0
        0.3518488889    0.2962933333    0.5000000000    1.0
        0.3333300000    0.3333300000    0.5000000000    1.0
        0.3157863158    0.3157863158    0.5000000000    1.0
        0.2982426316    0.2982426316    0.5000000000    1.0
        0.2806989474    0.2806989474    0.5000000000    1.0
        0.2631552632    0.2631552632    0.5000000000    1.0
        0.2456115789    0.2456115789    0.5000000000    1.0
        0.2280678947    0.2280678947    0.5000000000    1.0
        0.2105242105    0.2105242105    0.5000000000    1.0
        0.1929805263    0.1929805263    0.5000000000    1.0
        0.1754368421    0.1754368421    0.5000000000    1.0
        0.1578931579    0.1578931579    0.5000000000    1.0
        0.1403494737    0.1403494737    0.5000000000    1.0
        0.1228057895    0.1228057895    0.5000000000    1.0
        0.1052621053    0.1052621053    0.5000000000    1.0
        0.0877184211    0.0877184211    0.5000000000    1.0
        0.0701747368    0.0701747368    0.5000000000    1.0
        0.0526310526    0.0526310526    0.5000000000    1.0
        0.0350873684    0.0350873684    0.5000000000    1.0
        0.0175436842    0.0175436842    0.5000000000    1.0
        0.0000000000    0.0000000000    0.5000000000    1.0
